23 14 10 7 58 34 50 24 
45 8 67 18 99 4 25 
27 37 19 20 72 82 74 
44 39 40 64 95 32 46 70 89 17 83 
96 1 73 49 86 55 60 
98 
69 5 43 2 
63 15 71 88 61 81 84 59 87 41 85 
33 30 13 3 
42 11 48 94 100 80 68 77 52 
76 65 51 53 
36 22 79 
28 9 90 16 97 66 93 
75 91 31 
21 26 62 29 92 47 38 78 57 6 56 54 12 35 

